p tw 20 113
0 1
0 2
0 3
0 9
0 6
0 12
0 11
0 5
0 8
0 15
1 2
1 6
1 7
1 4
1 8
1 5
1 14
1 9
1 17
1 12
1 16
1 3
1 18
2 6
2 8
2 10
2 11
2 13
2 14
2 18
2 12
2 19
2 15
2 16
2 4
2 9
2 3
3 4
3 5
3 9
3 7
3 11
3 18
3 12
4 5
4 8
4 7
4 15
4 14
4 19
4 12
4 13
4 18
5 14
5 9
5 17
5 12
5 8
5 15
5 11
6 7
6 8
6 12
6 17
6 14
6 13
6 10
6 15
6 11
6 18
6 16
6 9
7 9
7 11
7 17
7 18
8 13
8 15
8 18
8 10
8 11
8 17
8 16
9 11
9 17
9 18
9 14
9 16
9 12
9 13
10 11
10 18
10 16
10 15
10 17
11 17
11 18
11 15
12 15
12 16
12 19
13 14
13 15
13 18
14 16
14 19
14 17
15 16
15 18
16 18
17 18
17 19
18 19
